JulietBench/Juliet_Based_Patch_Bench/FFmpeg/CWE-189-Numeric-Errors/CVE_2013_0862_f4fb841ad13bab66d4fb0c7ff2a94770df7815d8/solverprocess_frame_obj_Snippet.smt2
; benchmark generated from python API
(set-info :status unknown)
(declare-fun R () (_ BitVec 32))
(declare-fun rdi () (_ BitVec 64))
(declare-fun rsi () (_ BitVec 64))
(assert
 (let (($x15 (= (_ bv0 32) R)))
 (let ((?x22 ((_ extract 31 0) rdi)))
 (let (($x21 (bvsge (_ bv16 32) ?x22)))
 (let ((?x20 (ite $x21 (_ bv16 32) ?x22)))
 (let (($x27 (bvslt (_ bv0 32) ?x20)))
 (let ((?x14 ((_ extract 31 0) rsi)))
 (let (($x11 (bvsge (_ bv13 32) ?x14)))
 (let ((?x10 (ite $x11 (_ bv13 32) ?x14)))
 (let (($x26 (bvslt (_ bv0 32) ?x10)))
 (let ((?x9 (bvsub ?x10 (_ bv4294967168 32))))
 (let ((?x8 ((_ zero_extend 32) ?x9)))
 (let ((?x18 (bvsub ?x20 (_ bv4294967168 32))))
 (let ((?x17 ((_ zero_extend 32) ?x18)))
 (let ((?x23 (bvmul ?x17 ?x8)))
 (let (($x31 (bvule ?x23 (_ bv268435454 64))))
 (let (($x32 (and $x31 $x26 $x27 $x15)))
 (let (($x29 (= (_ bv3199971767 32) R)))
 (let (($x25 (bvugt ?x23 (_ bv268435454 64))))
 (let (($x30 (and $x25 $x26 $x27 $x29)))
 (let (($x33 (or $x30 $x32)))
 (let (($x36 (not $x33)))
 (let (($x35 (and (distinct (_ bv0 32) R) true)))
 (let (($x37 (and $x35 $x36)))
 (let (($x34 (and $x15 $x33)))
 (let (($x38 (or $x34 $x37)))
 (not $x38)))))))))))))))))))))))))))
(check-sat)
